50
1 31 15
2 100 84
3 11 17
4 20 96
5 71 25
6 86 85
7 36 63
8 18 49
9 73 85
10 13 100
11 17 94
12 55 79
13 100 91
14 47 93
15 25 10
16 43 57
17 92 8
18 40 3
19 26 60
20 65 63
21 86 51
22 47 88
23 80 65
24 37 18
25 15 16
26 18 32
27 9 39
28 78 75
29 97 24
30 67 21
31 0 76
32 78 93
33 85 85
34 62 77
35 10 26
36 39 96
37 43 86
38 50 89
39 16 87
40 7 32
41 69 25
42 30 45
43 30 7
44 19 26
45 98 53
46 14 99
47 95 58
48 57 45
49 42 18
50 88 53
